1 18425 1 21698
2 20422 11 21418
3 15910 4 406
4 25168 11 29790
5 27455 23 28081
6 10140 8 20009
7 21970 21 12310
8 18305 6 24564
9 18104 23 14461
10 24507 11 11372
11 9712 8 5767
12 15626 24 16911
13 19375 23 12012
14 7937 11 8141
15 20185 8 11987
16 16658 14 26000
17 2590 14 13671
18 22932 22 22939
19 24606 9 24341
20 21851 13 7316
21 14121 27 4883
22 19811 9 23058
23 21166 15 4224
24 16293 10 1993
25 18737 10 13990
26 12656 18 29607
27 23998 5 23549
28 28564 1 9992
29 1467 28 24938
30 21980 6 26657
31 26183 2 19271
32 20338 12 15479
33 21821 18 2256
34 10466 18 329
35 11456 18 5548
36 11931 9 28316
37 15382 8 1566
38 23597 11 13939
39 4187 19 27386
40 265 8 6897
41 20381 17 12081
42 2356 4 15396
43 27857 11 14432
44 1065 22 24552
45 64 12 23893
46 21385 9 3806
47 29296 18 29115
48 1603 29 831
49 21693 14 3830
50 25376 22 6404
